NAME : random611090
COMMENT: random generated with id 611090
TYPE : TSP
DIMENSION : 10
EDGE_WEIGHT_TYPE : EUC_2D
NODE_COORD_SECTION
1 18.363278 11.926768
2 7.149110 2.946684
3 4.223227 14.625809
4 8.588075 14.451785
5 12.825563 4.269809
6 1.635547 5.641224
7 11.830449 19.443593
8 10.652677 8.305814
9 0.047393 11.795937
10 10.935726 7.648870
EOF
